(declare-fun X0 () Int)
(declare-fun X1 () Int)
(declare-fun X2 () Int)
(declare-fun X3 () Int)
(declare-fun X4 () Int)
(declare-fun X5 () Int)
(declare-fun X6 () Int)
(declare-fun X7 () Int)
(declare-fun X8 () Int)
(declare-fun X9 () Int)
(declare-fun X10 () Int)
(declare-fun X11 () Int)
(declare-fun X12 () Int)
(declare-fun X13 () Int)
(declare-fun X14 () Int)
(assert (<= (- X1 X0) 1))
(assert (>= (- X1 X0) 0))
(assert (<= (- X2 X0) 2))
(assert (>= (- X2 X0) 1))
(assert (<= (- X3 X0) 3))
(assert (>= (- X3 X0) 2))
(assert (<= (- X4 X0) 5))
(assert (>= (- X4 X0) 3))
(assert (<= (- X5 X0) 6))
(assert (>= (- X5 X0) 5))
(assert (<= (- X6 X0) 9))
(assert (>= (- X6 X0) 6))
(assert (<= (- X7 X0) 12))
(assert (>= (- X7 X0) 9))
(assert (<= (- X8 X0) 13))
(assert (>= (- X8 X0) 12))
(assert (<= (- X9 X0) 14))
(assert (>= (- X9 X0) 13))
(assert (<= (- X10 X0) 15))
(assert (>= (- X10 X0) 14))
(assert (<= (- X11 X0) 17))
(assert (>= (- X11 X0) 15))
(assert (<= (- X12 X0) 19))
(assert (>= (- X12 X0) 17))
(assert (<= (- X13 X0) 21))
(assert (>= (- X13 X0) 19))
(assert (<= (- X14 X0) 23))
(assert (>= (- X14 X0) 21))
(check-sat)
